# Solution for model r10_t27_m1_8
# Finished Task: 26 / 27
# Makespan: 485.0, Total Distance: 1362.0, Total Time: 0.2605
# R O S F
0 0 15 0.0 0.0
1 1 19 0.0 0.0
2 2 31 0.0 0.0
3 3 26 0.0 0.0
4 4 17 0.0 0.0
5 5 34 0.0 0.0
6 6 11 0.0 0.0
7 7 14 0.0 0.0
8 8 32 0.0 0.0
9 9 18 0.0 0.0
10 7 25 333.0 362.0
11 6 12 175.0 212.0
12 6 -1 338.0 363.0
13 3 -1 454.0 479.0
14 7 29 77.0 110.0
15 0 23 391.0 422.0
16 -1 -1 -1.0 -1.0
17 4 20 300.0 333.0
18 9 33 63.0 90.0
19 1 -1 351.0 378.0
20 4 -1 378.0 413.0
21 8 -1 454.0 485.0
22 2 -1 345.0 366.0
23 0 -1 422.0 454.0
24 8 36 191.0 228.0
25 7 -1 404.0 436.0
26 3 13 378.0 402.0
27 9 30 229.0 250.0
28 8 35 108.0 139.0
29 7 10 195.0 231.0
30 9 -1 440.0 461.0
31 2 22 164.0 186.0
32 8 28 76.0 98.0
33 9 27 192.0 229.0
34 5 -1 402.0 440.0
35 8 24 169.0 191.0
36 8 21 301.0 332.0
